402 793 10 0 1439
1694 1564 1 318 378
789 862 2 136 186
634 510 2 1175 1207
2131 1937 3 222 328
516 352 4 1310 1378
671 537 3 1314 1402
1850 238 2 1266 1364
1441 2139 1 634 691
2370 2338 1 300 419
436 944 3 478 522
475 1881 2 1190 1223
1061 1641 2 390 397
1217 515 3 959 967
332 366 1 983 1061
683 1094 2 104 152
2404 557 2 312 382
1383 600 1 900 1001
1347 921 1 332 447
858 1707 3 1320 1353
1206 1109 2 390 446
1372 1273 4 1416 1432
2446 2254 2 1178 1235
1721 1550 2 1164 1247
1648 1259 4 95 120
244 2398 1 125 149
